words_train/words_790_SAT.qaiger
aag 68 24 0 1 44
34
18
4
40
8
28
30
26
2
6
32
20
36
46
22
44
24
38
42
16
48
12
10
14
136
50 44 28
52 42 26
54 40 24
56 38 22
58 36 20
60 34 18
62 61 59
64 62 57
66 64 55
68 66 53
70 68 51
72 46 30
74 73 70
76 72 71
78 77 75
80 78 8
82 69 50
84 83 71
86 84 6
88 67 52
90 89 69
92 91 5
94 90 4
96 65 54
98 67 2
100 98 97
102 101 95
104 103 93
106 105 87
108 85 7
110 79 9
112 111 109
114 112 107
116 115 81
118 48 32
120 74 10
122 75 11
124 123 121
126 125 118
128 124 119
130 129 127
132 131 117
134 130 116
136 135 133
i0 2 y[0]
i1 2 z[0]
i2 1 x[1]
i3 2 y[3]
i4 1 x[3]
i5 2 z[5]
i6 2 z[6]
i7 2 z[4]
i8 1 x[0]
i9 1 x[2]
i10 2 z[7]
i11 2 z[1]
i12 2 y[1]
i13 2 y[6]
i14 2 z[2]
i15 2 y[5]
i16 2 z[3]
i17 2 y[2]
i18 2 y[4]
i19 1 x[7]
i20 2 y[7]
i21 1 x[5]
i22 1 x[4]
i23 1 x[6]
o0 bv[0]
c
simplified
  >=
    and
      unary minus
        1
      << 3
        1 x
    and
      2 z
      2 y
