words_train/words_790_SAT.qaiger.qdimacs
p cnf 68 133
a 1 2 3 4 5 6 7 8 0
e 9 10 11 12 13 14 15 16 17 18 19 20 21 22 23 24 25 26 27 28 29 30 31 32 33 34 35 36 37 38 39 40 41 42 43 44 45 46 47 48 49 50 51 52 53 54 55 56 57 58 59 60 61 62 63 64 65 66 67 68 0
-22 -14 25 0
22 -25 0
14 -25 0
-21 -13 26 0
21 -26 0
13 -26 0
-20 -12 27 0
20 -27 0
12 -27 0
-19 -11 28 0
19 -28 0
11 -28 0
-18 -10 29 0
18 -29 0
10 -29 0
-17 -9 30 0
17 -30 0
9 -30 0
30 29 31 0
-30 -31 0
-29 -31 0
-31 28 32 0
31 -32 0
-28 -32 0
-32 27 33 0
32 -33 0
-27 -33 0
-33 26 34 0
33 -34 0
-26 -34 0
-34 25 35 0
34 -35 0
-25 -35 0
-23 -15 36 0
23 -36 0
15 -36 0
36 -35 37 0
-36 -37 0
35 -37 0
-36 35 38 0
36 -38 0
-35 -38 0
38 37 39 0
-38 -39 0
-37 -39 0
-39 -4 40 0
39 -40 0
4 -40 0
34 -25 41 0
-34 -41 0
25 -41 0
41 35 42 0
-41 -42 0
-35 -42 0
-42 -3 43 0
42 -43 0
3 -43 0
33 -26 44 0
-33 -44 0
26 -44 0
44 34 45 0
-44 -45 0
-34 -45 0
45 2 46 0
-45 -46 0
-2 -46 0
-45 -2 47 0
45 -47 0
2 -47 0
32 -27 48 0
-32 -48 0
27 -48 0
33 -1 49 0
-33 -49 0
1 -49 0
-49 48 50 0
49 -50 0
-48 -50 0
50 47 51 0
-50 -51 0
-47 -51 0
51 46 52 0
-51 -52 0
-46 -52 0
52 43 53 0
-52 -53 0
-43 -53 0
42 3 54 0
-42 -54 0
-3 -54 0
39 4 55 0
-39 -55 0
-4 -55 0
55 54 56 0
-55 -56 0
-54 -56 0
-56 53 57 0
56 -57 0
-53 -57 0
57 40 58 0
-57 -58 0
-40 -58 0
-24 -16 59 0
24 -59 0
16 -59 0
-37 -5 60 0
37 -60 0
5 -60 0
37 5 61 0
-37 -61 0
-5 -61 0
61 60 62 0
-61 -62 0
-60 -62 0
62 -59 63 0
-62 -63 0
59 -63 0
-62 59 64 0
62 -64 0
-59 -64 0
64 63 65 0
-64 -65 0
-63 -65 0
65 58 66 0
-65 -66 0
-58 -66 0
-65 -58 67 0
65 -67 0
58 -67 0
67 66 68 0
-67 -68 0
-66 -68 0
68 0
